NAME : kroB100-R-5-1-a.35209.tour
COMMENT : Length = 35209
COMMENT : Found by LKH-3 [Keld Helsgaun] Tue Jul 30 13:14:56 2024
TYPE : TOUR
DIMENSION : 100
TOUR_SECTION
1
95
21
86
49
75
79
56
62
67
70
53
73
85
11
3
91
97
76
71
27
61
57
7
74
66
42
18
36
44
17
78
13
63
31
51
48
82
64
33
6
4
87
43
50
77
55
22
23
54
72
37
65
81
30
80
20
38
46
94
35
98
32
29
99
59
8
28
93
10
68
39
40
5
69
26
100
47
88
24
96
19
92
41
45
16
2
14
15
83
89
60
52
58
84
34
25
9
12
90
-1
EOF
